Geographic Exponential Decay
20 283 241 146 101 109 108 162 132 189 106 194 188 126 12 51 298 103 163 191 224
p edge 320 1260
e 0 58 22.0
e 0 237 11.0
e 0 235 22.0
e 0 313 20.0
e 0 290 13.0
e 0 165 8.0
e 0 158 18.0
e 0 231 12.0
e 0 1 16.0
e 0 134 1.0
e 1 64 1.0
e 2 55 5.0
e 2 203 5.0
e 2 12 68.0
e 3 208 1.0
e 3 19 1.0
e 4 171 1.0
e 4 306 3.0
e 5 303 1.0
e 5 130 1.0
e 6 192 4.0
e 6 188 46.0
e 6 130 2.0
e 6 275 1.0
e 6 170 1.0
e 7 271 2.0
e 7 260 1.0
e 8 127 1.0
e 8 108 57.0
e 8 229 11.0
e 8 261 10.0
e 8 263 12.0
e 9 82 1.0
e 9 217 2.0
e 10 225 49.0
e 10 36 1.0
e 11 207 7.0
e 11 119 7.0
e 11 228 3.0
e 11 156 11.0
e 11 233 7.0
e 12 235 92.0
e 12 87 36.0
e 12 262 79.0
e 12 105 3.0
e 12 37 74.0
e 12 197 9.0
e 12 315 78.0
e 12 22 45.0
e 12 198 87.0
e 12 67 60.0
e 12 129 41.0
e 12 62 12.0
e 12 183 62.0
e 12 100 66.0
e 12 278 83.0
e 12 25 46.0
e 12 89 48.0
e 12 236 46.0
e 12 227 96.0
e 12 26 98.0
e 12 312 99.0
e 12 228 95.0
e 12 54 83.0
e 12 259 61.0
e 12 46 97.0
e 12 188 18.0
e 12 257 100.0
e 12 301 42.0
e 12 307 15.0
e 12 101 47.0
e 12 242 24.0
e 12 64 34.0
e 12 31 8.0
e 12 251 48.0
e 12 120 97.0
e 12 239 14.0
e 13 224 23.0
e 13 287 1.0
e 14 136 6.0
e 14 147 5.0
e 14 8 5.0
e 14 105 6.0
e 14 231 3.0
e 15 145 12.0
e 15 88 5.0
e 16 28 1.0
e 16 11 4.0
e 17 92 2.0
e 17 56 23.0
e 18 16 5.0
e 18 93 2.0
e 18 307 3.0
e 19 51 77.0
e 19 74 5.0
e 20 237 27.0
e 20 282 22.0
e 20 7 36.0
e 20 37 30.0
e 20 42 44.0
e 20 258 45.0
e 20 268 15.0
e 20 36 8.0
e 20 176 16.0
e 20 126 2.0
e 20 220 27.0
e 20 264 24.0
e 20 141 42.0
e 20 24 14.0
e 20 224 74.0
e 20 218 41.0
e 20 166 15.0
e 20 190 30.0
e 20 12 92.0
e 21 135 2.0
e 21 118 2.0
e 22 293 19.0
e 22 150 20.0
e 22 289 17.0
e 22 267 4.0
e 22 130 16.0
e 22 86 15.0
e 22 268 12.0
e 22 48 16.0
e 22 255 7.0
e 23 225 4.0
e 23 205 1.0
e 24 95 1.0
e 25 267 2.0
e 26 160 5.0
e 27 139 3.0
e 27 92 1.0
e 27 30 5.0
e 28 120 1.0
e 29 315 1.0
e 29 140 2.0
e 30 145 1.0
e 31 220 9.0
e 31 192 5.0
e 31 124 9.0
e 31 27 8.0
e 32 163 82.0
e 32 159 1.0
e 33 162 19.0
e 33 259 2.0
e 33 243 4.0
e 34 296 15.0
e 34 89 1.0
e 35 27 4.0
e 35 38 6.0
e 36 271 5.0
e 38 138 5.0
e 38 104 4.0
e 38 273 8.0
e 38 108 88.0
e 39 197 1.0
e 39 33 5.0
e 39 209 1.0
e 40 256 5.0
e 40 208 1.0
e 41 59 3.0
e 41 286 4.0
e 41 72 2.0
e 42 112 1.0
e 42 58 4.0
e 43 293 2.0
e 43 181 3.0
e 43 219 1.0
e 44 278 27.0
e 44 91 1.0
e 45 253 1.0
e 45 228 3.0
e 45 192 4.0
e 46 113 1.0
e 47 240 4.0
e 47 66 6.0
e 47 168 5.0
e 48 238 1.0
e 48 70 5.0
e 49 189 76.0
e 49 94 24.0
e 49 35 10.0
e 49 51 7.0
e 49 282 16.0
e 49 156 18.0
e 49 71 9.0
e 49 312 19.0
e 49 155 17.0
e 49 122 23.0
e 50 206 1.0
e 50 315 1.0
e 51 50 86.0
e 51 205 22.0
e 51 212 45.0
e 51 158 2.0
e 51 82 67.0
e 51 211 19.0
e 51 290 64.0
e 51 209 66.0
e 51 238 33.0
e 51 32 98.0
e 51 79 12.0
e 51 54 72.0
e 51 47 3.0
e 51 200 93.0
e 51 230 31.0
e 51 174 37.0
e 51 298 12.0
e 51 201 71.0
e 51 263 64.0
e 51 41 43.0
e 51 259 88.0
e 51 176 29.0
e 51 63 24.0
e 51 108 12.0
e 51 105 98.0
e 51 69 54.0
e 51 271 48.0
e 51 170 34.0
e 51 53 57.0
e 51 3 11.0
e 51 187 51.0
e 51 296 34.0
e 51 65 16.0
e 51 43 89.0
e 51 99 5.0
e 52 261 1.0
e 52 169 5.0
e 52 82 9.0
e 52 158 8.0
e 52 222 3.0
e 53 181 19.0
e 53 261 21.0
e 53 284 3.0
e 53 313 3.0
e 53 192 3.0
e 53 172 8.0
e 53 42 18.0
e 53 166 3.0
e 53 126 50.0
e 55 148 2.0
e 56 178 10.0
e 56 293 5.0
e 56 185 11.0
e 56 29 4.0
e 56 36 25.0
e 56 109 52.0
e 56 282 9.0
e 56 75 4.0
e 56 193 21.0
e 57 15 2.0
e 57 295 5.0
e 58 140 3.0
e 58 188 12.0
e 58 268 9.0
e 59 85 1.0
e 60 35 1.0
e 60 120 1.0
e 61 286 9.0
e 61 89 8.0
e 61 2 10.0
e 61 158 6.0
e 61 83 9.0
e 62 268 20.0
e 62 31 2.0
e 63 90 11.0
e 63 92 1.0
e 64 59 8.0
e 64 205 17.0
e 64 307 1.0
e 64 115 19.0
e 64 311 14.0
e 64 108 75.0
e 64 305 21.0
e 64 25 15.0
e 65 111 20.0
e 65 174 11.0
e 65 264 8.0
e 65 188 73.0
e 66 26 4.0
e 66 106 21.0
e 67 123 1.0
e 68 271 1.0
e 68 36 5.0
e 69 1 1.0
e 69 175 1.0
e 70 86 1.0
e 71 196 3.0
e 72 248 3.0
e 72 14 1.0
e 73 303 2.0
e 73 203 3.0
e 73 118 2.0
e 74 52 11.0
e 75 297 10.0
e 75 147 19.0
e 75 140 11.0
e 75 45 23.0
e 75 123 7.0
e 75 136 22.0
e 75 61 12.0
e 75 199 13.0
e 75 98 20.0
e 76 110 2.0
e 76 172 4.0
e 76 15 16.0
e 76 279 22.0
e 76 1 23.0
e 76 173 19.0
e 76 191 50.0
e 76 23 1.0
e 76 237 23.0
e 76 271 8.0
e 77 246 1.0
e 77 109 63.0
e 78 269 2.0
e 78 238 4.0
e 78 309 10.0
e 78 199 1.0
e 78 66 12.0
e 79 301 11.0
e 80 56 1.0
e 80 233 1.0
e 81 228 1.0
e 81 301 9.0
e 83 304 1.0
e 84 275 10.0
e 84 80 5.0
e 84 128 2.0
e 84 102 8.0
e 84 51 56.0
e 84 172 17.0
e 84 309 8.0
e 84 146 99.0
e 84 307 17.0
e 84 46 8.0
e 85 176 1.0
e 87 271 1.0
e 88 259 4.0
e 88 118 2.0
e 90 281 3.0
e 90 193 2.0
e 90 307 2.0
e 90 231 5.0
e 91 316 3.0
e 93 241 11.0
e 94 293 3.0
e 94 210 2.0
e 95 57 2.0
e 95 255 3.0
e 96 62 1.0
e 96 312 8.0
e 96 266 5.0
e 96 200 9.0
e 96 4 11.0
e 97 25 1.0
e 97 17 1.0
e 97 254 5.0
e 98 135 1.0
e 98 66 3.0
e 99 53 9.0
e 99 208 6.0
e 100 71 5.0
e 100 78 3.0
e 101 249 1.0
e 101 201 74.0
e 101 152 22.0
e 101 85 21.0
e 101 267 29.0
e 101 253 20.0
e 101 149 64.0
e 101 106 89.0
e 101 261 68.0
e 101 301 37.0
e 101 191 4.0
e 101 240 85.0
e 101 309 76.0
e 101 269 42.0
e 101 186 71.0
e 101 84 49.0
e 101 317 20.0
e 101 254 16.0
e 101 154 86.0
e 101 200 65.0
e 101 266 52.0
e 101 300 48.0
e 101 241 93.0
e 101 121 25.0
e 101 113 14.0
e 101 1 97.0
e 101 52 86.0
e 101 5 54.0
e 101 187 57.0
e 101 223 21.0
e 101 212 75.0
e 101 91 20.0
e 101 160 53.0
e 101 155 86.0
e 101 125 96.0
e 101 313 61.0
e 102 238 12.0
e 102 65 15.0
e 102 281 13.0
e 102 269 6.0
e 102 190 21.0
e 102 90 12.0
e 102 7 15.0
e 102 261 1.0
e 102 191 79.0
e 103 194 32.0
e 103 247 16.0
e 103 202 74.0
e 103 145 76.0
e 103 96 33.0
e 103 138 79.0
e 103 144 25.0
e 103 271 46.0
e 103 222 69.0
e 103 117 41.0
e 103 152 70.0
e 103 296 32.0
e 103 220 82.0
e 103 282 15.0
e 103 146 71.0
e 103 80 12.0
e 103 287 36.0
e 103 275 87.0
e 103 265 78.0
e 103 192 61.0
e 103 35 48.0
e 103 244 24.0
e 103 289 2.0
e 103 11 98.0
e 103 297 36.0
e 103 225 74.0
e 103 193 84.0
e 103 240 10.0
e 103 161 56.0
e 103 75 100.0
e 103 196 17.0
e 103 237 32.0
e 103 272 93.0
e 103 57 26.0
e 103 167 60.0
e 103 16 41.0
e 103 48 55.0
e 104 288 2.0
e 104 316 1.0
e 106 89 31.0
e 106 297 66.0
e 106 312 24.0
e 106 34 54.0
e 106 20 21.0
e 106 277 20.0
e 106 105 18.0
e 106 14 20.0
e 106 6 85.0
e 106 291 13.0
e 106 97 50.0
e 106 90 45.0
e 106 107 87.0
e 106 253 16.0
e 106 11 95.0
e 106 156 8.0
e 106 164 76.0
e 106 115 19.0
e 106 182 52.0
e 106 272 20.0
e 106 207 100.0
e 106 313 13.0
e 106 202 85.0
e 106 286 44.0
e 106 192 23.0
e 106 194 62.0
e 106 236 80.0
e 106 203 78.0
e 106 43 57.0
e 106 2 59.0
e 106 118 30.0
e 106 133 68.0
e 106 198 73.0
e 106 266 7.0
e 106 169 21.0
e 107 212 1.0
e 108 278 38.0
e 108 309 9.0
e 108 216 90.0
e 108 65 87.0
e 108 69 87.0
e 108 18 69.0
e 108 234 10.0
e 108 71 36.0
e 108 125 62.0
e 108 104 77.0
e 108 270 12.0
e 108 133 67.0
e 108 92 19.0
e 108 186 82.0
e 108 258 66.0
e 108 287 31.0
e 108 154 48.0
e 108 77 42.0
e 108 155 80.0
e 108 87 88.0
e 108 245 59.0
e 108 249 6.0
e 108 126 32.0
e 108 183 49.0
e 108 168 75.0
e 108 283 71.0
e 108 195 2.0
e 108 35 24.0
e 108 310 66.0
e 108 269 13.0
e 108 46 80.0
e 108 177 100.0
e 108 194 9.0
e 109 257 96.0
e 109 0 57.0
e 109 132 59.0
e 109 208 85.0
e 109 80 93.0
e 109 222 30.0
e 109 275 37.0
e 109 254 80.0
e 109 62 62.0
e 109 262 74.0
e 109 141 37.0
e 109 144 99.0
e 109 78 10.0
e 109 142 75.0
e 109 147 39.0
e 109 268 22.0
e 109 73 73.0
e 109 98 68.0
e 109 258 60.0
e 109 256 70.0
e 109 184 13.0
e 109 183 92.0
e 109 245 36.0
e 109 131 42.0
e 109 117 22.0
e 109 64 14.0
e 109 63 97.0
e 109 169 42.0
e 109 125 97.0
e 109 216 77.0
e 109 311 96.0
e 109 247 44.0
e 109 71 98.0
e 109 46 52.0
e 109 264 48.0
e 110 90 9.0
e 111 237 7.0
e 111 133 17.0
e 111 172 12.0
e 111 8 16.0
e 111 202 7.0
e 111 262 19.0
e 111 53 7.0
e 111 124 22.0
e 111 288 24.0
e 112 79 1.0
e 114 314 12.0
e 114 113 2.0
e 115 86 3.0
e 115 196 7.0
e 115 40 10.0
e 116 315 5.0
e 116 184 1.0
e 116 262 5.0
e 119 271 10.0
e 119 75 16.0
e 119 110 4.0
e 119 15 10.0
e 121 10 2.0
e 122 116 1.0
e 122 117 1.0
e 122 276 4.0
e 122 198 20.0
e 122 94 16.0
e 122 172 4.0
e 122 193 4.0
e 122 183 22.0
e 122 124 6.0
e 124 108 58.0
e 124 318 11.0
e 126 140 39.0
e 126 5 49.0
e 126 266 62.0
e 126 207 27.0
e 126 303 81.0
e 126 177 75.0
e 126 251 84.0
e 126 215 29.0
e 126 62 95.0
e 126 316 44.0
e 126 104 39.0
e 126 52 50.0
e 126 103 69.0
e 126 265 3.0
e 126 94 16.0
e 126 271 1.0
e 126 105 23.0
e 126 261 90.0
e 126 46 99.0
e 126 120 30.0
e 126 317 50.0
e 126 248 2.0
e 126 63 83.0
e 126 2 89.0
e 126 146 94.0
e 126 158 1.0
e 126 127 30.0
e 126 165 78.0
e 126 255 26.0
e 126 223 97.0
e 126 224 32.0
e 126 116 54.0
e 126 8 52.0
e 126 13 74.0
e 127 149 4.0
e 128 206 3.0
e 128 18 1.0
e 129 261 4.0
e 131 104 10.0
e 131 56 4.0
e 131 76 21.0
e 131 12 65.0
e 132 98 10.0
e 132 92 59.0
e 132 117 50.0
e 132 264 40.0
e 132 110 92.0
e 132 114 74.0
e 132 16 33.0
e 132 182 71.0
e 132 279 99.0
e 132 30 21.0
e 132 37 33.0
e 132 198 18.0
e 132 9 61.0
e 132 80 73.0
e 132 29 75.0
e 132 254 75.0
e 132 200 33.0
e 132 184 48.0
e 132 43 75.0
e 132 118 11.0
e 132 181 5.0
e 132 167 42.0
e 132 0 35.0
e 132 157 44.0
e 132 301 21.0
e 132 138 2.0
e 132 305 4.0
e 132 91 19.0
e 132 130 52.0
e 132 244 39.0
e 132 25 6.0
e 132 232 13.0
e 132 84 4.0
e 132 31 38.0
e 132 102 37.0
e 132 187 49.0
e 134 256 5.0
e 136 93 4.0
e 137 108 98.0
e 137 60 2.0
e 137 29 1.0
e 138 194 62.0
e 138 152 13.0
e 138 79 9.0
e 138 268 11.0
e 138 13 24.0
e 138 191 55.0
e 138 267 12.0
e 139 198 2.0
e 141 251 9.0
e 142 175 2.0
e 143 198 7.0
e 143 0 11.0
e 143 169 10.0
e 143 8 1.0
e 143 50 5.0
e 144 204 20.0
e 144 249 2.0
e 144 162 96.0
e 145 20 40.0
e 145 39 9.0
e 146 313 77.0
e 146 157 57.0
e 146 297 91.0
e 146 124 46.0
e 146 214 46.0
e 146 1 93.0
e 146 293 77.0
e 146 155 58.0
e 146 271 21.0
e 146 270 97.0
e 146 256 52.0
e 146 117 37.0
e 146 113 96.0
e 146 11 50.0
e 146 219 99.0
e 146 309 59.0
e 146 277 46.0
e 146 167 12.0
e 146 121 91.0
e 146 119 42.0
e 146 43 72.0
e 146 186 65.0
e 146 158 75.0
e 146 266 78.0
e 146 23 6.0
e 146 72 67.0
e 146 159 13.0
e 146 298 38.0
e 146 125 25.0
e 146 311 77.0
e 146 147 58.0
e 146 294 27.0
e 146 128 15.0
e 146 300 53.0
e 147 41 1.0
e 148 167 1.0
e 149 283 63.0
e 150 284 5.0
e 151 80 2.0
e 151 125 4.0
e 151 99 5.0
e 153 246 1.0
e 153 197 4.0
e 154 180 23.0
e 154 38 47.0
e 154 178 42.0
e 154 173 31.0
e 154 78 26.0
e 154 161 28.0
e 154 232 24.0
e 154 98 1.0
e 154 196 10.0
e 154 133 17.0
e 154 3 12.0
e 154 97 9.0
e 154 184 11.0
e 154 67 1.0
e 154 280 12.0
e 154 103 1.0
e 154 48 39.0
e 157 238 11.0
e 157 304 3.0
e 157 54 1.0
e 160 158 5.0
e 162 275 27.0
e 162 34 6.0
e 162 41 54.0
e 162 50 51.0
e 162 57 45.0
e 162 122 43.0
e 162 15 2.0
e 162 145 81.0
e 162 286 4.0
e 162 265 43.0
e 162 99 59.0
e 162 304 39.0
e 162 125 13.0
e 162 12 93.0
e 162 220 80.0
e 162 183 5.0
e 162 283 99.0
e 162 235 17.0
e 162 109 23.0
e 162 13 72.0
e 162 317 45.0
e 162 176 7.0
e 162 277 24.0
e 162 42 17.0
e 162 105 18.0
e 162 260 44.0
e 162 261 67.0
e 162 1 50.0
e 162 182 4.0
e 162 238 99.0
e 162 51 3.0
e 162 263 4.0
e 162 96 49.0
e 162 192 21.0
e 162 11 91.0
e 163 70 34.0
e 163 80 21.0
e 163 111 31.0
e 163 278 99.0
e 163 237 78.0
e 163 154 87.0
e 163 71 18.0
e 163 194 40.0
e 163 234 90.0
e 163 60 80.0
e 163 41 16.0
e 163 119 17.0
e 163 139 16.0
e 163 44 53.0
e 163 84 46.0
e 163 184 81.0
e 163 95 38.0
e 163 221 92.0
e 163 109 51.0
e 163 148 16.0
e 163 306 12.0
e 163 279 6.0
e 163 16 92.0
e 163 8 58.0
e 163 92 86.0
e 163 207 34.0
e 163 105 30.0
e 163 78 12.0
e 163 192 96.0
e 163 77 30.0
e 163 211 39.0
e 163 317 77.0
e 163 24 74.0
e 163 253 85.0
e 163 220 81.0
e 163 129 72.0
e 164 221 5.0
e 164 210 2.0
e 165 10 1.0
e 165 211 19.0
e 165 13 10.0
e 171 67 1.0
e 174 148 1.0
e 177 66 18.0
e 177 253 9.0
e 177 278 1.0
e 177 284 13.0
e 177 228 12.0
e 177 93 9.0
e 177 210 3.0
e 177 19 14.0
e 179 161 2.0
e 179 245 1.0
e 180 8 12.0
e 185 243 1.0
e 185 310 5.0
e 186 118 10.0
e 186 311 1.0
e 187 42 1.0
e 187 139 10.0
e 188 33 43.0
e 188 87 69.0
e 188 222 75.0
e 188 60 29.0
e 188 115 64.0
e 188 24 39.0
e 188 56 62.0
e 188 278 49.0
e 188 229 38.0
e 188 202 16.0
e 188 195 52.0
e 188 268 95.0
e 188 226 13.0
e 188 173 5.0
e 188 318 80.0
e 188 245 99.0
e 188 199 51.0
e 188 124 96.0
e 188 189 21.0
e 188 142 89.0
e 188 17 5.0
e 188 209 15.0
e 188 190 41.0
e 188 207 37.0
e 188 298 30.0
e 188 267 87.0
e 188 168 84.0
e 188 71 65.0
e 188 314 74.0
e 188 74 88.0
e 188 18 57.0
e 188 54 91.0
e 188 57 45.0
e 189 46 84.0
e 189 164 63.0
e 189 298 96.0
e 189 178 72.0
e 189 301 20.0
e 189 213 61.0
e 189 218 62.0
e 189 179 80.0
e 189 272 19.0
e 189 237 8.0
e 189 124 51.0
e 189 165 54.0
e 189 199 8.0
e 189 53 45.0
e 189 161 73.0
e 189 183 40.0
e 189 134 16.0
e 189 38 61.0
e 189 68 71.0
e 189 270 1.0
e 189 102 26.0
e 189 295 46.0
e 189 196 12.0
e 189 262 34.0
e 189 77 5.0
e 189 175 80.0
e 189 250 86.0
e 189 29 48.0
e 189 190 56.0
e 189 302 14.0
e 189 231 18.0
e 189 94 85.0
e 189 275 18.0
e 189 118 54.0
e 189 8 54.0
e 191 57 77.0
e 191 202 81.0
e 191 68 47.0
e 191 52 84.0
e 191 115 39.0
e 191 140 19.0
e 191 135 89.0
e 191 160 48.0
e 191 63 6.0
e 191 235 17.0
e 191 43 40.0
e 191 291 9.0
e 191 45 99.0
e 191 26 13.0
e 191 263 11.0
e 191 248 49.0
e 191 167 3.0
e 191 292 66.0
e 191 91 52.0
e 191 245 98.0
e 191 147 35.0
e 191 75 3.0
e 191 41 82.0
e 191 253 6.0
e 191 238 12.0
e 191 277 74.0
e 191 111 58.0
e 191 72 82.0
e 191 230 41.0
e 191 251 20.0
e 191 108 91.0
e 191 53 85.0
e 191 318 34.0
e 194 4 92.0
e 194 82 74.0
e 194 159 48.0
e 194 249 35.0
e 194 113 51.0
e 194 161 15.0
e 194 288 37.0
e 194 80 94.0
e 194 70 15.0
e 194 164 37.0
e 194 204 32.0
e 194 112 43.0
e 194 140 49.0
e 194 242 85.0
e 194 149 9.0
e 194 144 47.0
e 194 94 31.0
e 194 56 18.0
e 194 248 28.0
e 194 51 21.0
e 194 201 6.0
e 194 279 38.0
e 194 151 71.0
e 194 129 59.0
e 194 316 82.0
e 194 9 2.0
e 194 130 63.0
e 194 253 37.0
e 194 304 23.0
e 194 289 46.0
e 194 217 91.0
e 194 74 16.0
e 195 215 20.0
e 195 234 6.0
e 195 39 12.0
e 195 270 17.0
e 195 115 20.0
e 195 168 18.0
e 195 173 15.0
e 195 268 24.0
e 204 126 93.0
e 204 42 21.0
e 204 80 24.0
e 204 105 24.0
e 204 81 9.0
e 204 263 11.0
e 204 308 21.0
e 204 7 23.0
e 209 130 1.0
e 209 301 3.0
e 211 91 37.0
e 211 47 30.0
e 211 283 21.0
e 211 15 42.0
e 211 92 13.0
e 211 261 16.0
e 211 260 16.0
e 211 27 27.0
e 211 221 11.0
e 211 86 45.0
e 211 46 25.0
e 211 268 50.0
e 211 314 24.0
e 211 236 48.0
e 211 229 29.0
e 211 166 40.0
e 213 317 4.0
e 214 58 18.0
e 214 126 49.0
e 214 34 18.0
e 214 23 9.0
e 214 272 1.0
e 214 302 5.0
e 214 317 4.0
e 214 165 12.0
e 214 106 49.0
e 215 314 7.0
e 218 62 5.0
e 218 135 15.0
e 218 233 20.0
e 218 231 6.0
e 218 316 21.0
e 218 132 33.0
e 218 136 3.0
e 218 300 12.0
e 224 225 58.0
e 224 3 20.0
e 224 239 94.0
e 224 289 31.0
e 224 282 44.0
e 224 220 59.0
e 224 40 49.0
e 224 64 53.0
e 224 196 16.0
e 224 191 22.0
e 224 166 57.0
e 224 39 56.0
e 224 163 56.0
e 224 73 46.0
e 224 313 79.0
e 224 242 44.0
e 224 77 8.0
e 224 272 72.0
e 224 115 84.0
e 224 18 33.0
e 224 294 94.0
e 224 37 74.0
e 224 110 82.0
e 224 210 84.0
e 224 51 2.0
e 224 17 39.0
e 224 53 55.0
e 224 243 86.0
e 224 41 50.0
e 224 295 66.0
e 224 226 10.0
e 224 24 85.0
e 224 103 42.0
e 224 83 85.0
e 225 304 14.0
e 225 226 43.0
e 225 70 40.0
e 225 313 24.0
e 225 139 6.0
e 225 7 2.0
e 225 41 22.0
e 225 1 40.0
e 225 300 1.0
e 225 31 2.0
e 225 22 31.0
e 225 238 11.0
e 225 318 37.0
e 225 319 19.0
e 225 133 25.0
e 227 0 17.0
e 227 304 2.0
e 227 178 8.0
e 227 122 24.0
e 232 48 5.0
e 233 252 10.0
e 233 217 5.0
e 239 284 4.0
e 241 33 99.0
e 241 300 44.0
e 241 295 77.0
e 241 291 25.0
e 241 47 19.0
e 241 69 19.0
e 241 34 97.0
e 241 163 84.0
e 241 231 48.0
e 241 302 25.0
e 241 201 27.0
e 241 87 83.0
e 241 115 76.0
e 241 124 73.0
e 241 51 37.0
e 241 200 9.0
e 241 219 90.0
e 241 52 48.0
e 241 116 7.0
e 241 12 41.0
e 241 64 15.0
e 241 206 27.0
e 241 97 17.0
e 241 112 36.0
e 241 5 28.0
e 241 229 81.0
e 241 303 29.0
e 241 230 4.0
e 241 222 90.0
e 241 61 18.0
e 241 256 32.0
e 241 304 33.0
e 241 1 58.0
e 241 39 70.0
e 241 157 41.0
e 248 254 22.0
e 248 2 19.0
e 248 182 9.0
e 248 91 20.0
e 248 78 8.0
e 248 148 8.0
e 250 133 5.0
e 250 297 5.0
e 251 57 1.0
e 252 217 2.0
e 257 110 3.0
e 268 37 6.0
e 273 194 53.0
e 273 98 5.0
e 274 123 1.0
e 274 25 2.0
e 276 160 2.0
e 278 287 17.0
e 278 135 11.0
e 278 95 7.0
e 278 168 27.0
e 278 238 33.0
e 278 160 29.0
e 278 109 85.0
e 278 53 12.0
e 278 186 45.0
e 278 284 9.0
e 278 235 5.0
e 278 19 3.0
e 278 268 15.0
e 279 215 12.0
e 280 59 2.0
e 283 198 15.0
e 283 237 8.0
e 283 277 75.0
e 283 278 60.0
e 283 258 67.0
e 283 165 22.0
e 283 223 6.0
e 283 241 13.0
e 283 8 96.0
e 283 48 89.0
e 283 9 1.0
e 283 73 85.0
e 283 188 40.0
e 283 251 34.0
e 283 302 44.0
e 283 125 84.0
e 283 239 52.0
e 283 139 82.0
e 283 46 49.0
e 283 193 71.0
e 283 2 80.0
e 283 309 85.0
e 283 40 100.0
e 283 210 28.0
e 283 199 85.0
e 283 266 4.0
e 283 227 69.0
e 283 76 92.0
e 283 310 13.0
e 283 106 28.0
e 283 229 27.0
e 283 70 36.0
e 283 279 51.0
e 285 122 1.0
e 285 264 1.0
e 285 140 4.0
e 292 206 1.0
e 295 11 3.0
e 296 86 44.0
e 296 215 33.0
e 296 145 26.0
e 296 178 45.0
e 296 154 19.0
e 296 190 13.0
e 296 55 47.0
e 296 153 46.0
e 296 57 3.0
e 296 90 17.0
e 296 114 36.0
e 296 278 28.0
e 296 35 14.0
e 296 272 22.0
e 296 28 31.0
e 296 197 48.0
e 298 67 63.0
e 298 28 62.0
e 298 73 97.0
e 298 206 79.0
e 298 31 44.0
e 298 59 43.0
e 298 178 66.0
e 298 164 49.0
e 298 251 76.0
e 298 308 60.0
e 298 210 89.0
e 298 97 38.0
e 298 270 49.0
e 298 240 79.0
e 298 286 66.0
e 298 197 25.0
e 298 305 90.0
e 298 244 34.0
e 298 136 82.0
e 298 211 43.0
e 298 143 70.0
e 298 78 56.0
e 298 313 8.0
e 298 99 100.0
e 298 61 82.0
e 298 100 23.0
e 298 245 41.0
e 298 9 47.0
e 298 150 74.0
e 298 247 22.0
e 298 277 72.0
e 298 301 18.0
e 298 315 62.0
e 299 26 2.0
e 299 114 2.0
e 299 137 3.0
e 300 140 16.0
e 300 144 16.0
e 300 115 20.0
e 300 289 21.0
e 300 74 14.0
e 306 235 2.0
e 314 243 7.0
e 319 169 1.0
e 319 232 5.0
e 319 51 40.0
e 319 44 6.0
